
Gurobi 9.5.0 (win64, Python) logging started Tue Aug  8 11:00:59 2023

Set parameter LogFile to value "data/small_training_set/problems/problem_0180_gurobi.log_gurobi.log"
Restricted license - for non-production use only - expires 2023-10-25

Gurobi 9.5.0 (win64, Python) logging started Mon Aug 28 10:33:22 2023

Set parameter LogFile to value "data/small_training_set/problems/problem_0180_gurobi.log_gurobi.log"
Restricted license - for non-production use only - expires 2023-10-25
